188
29
5
83
129
124
166
26
85
127
35
81
89
173
5
43
77
186
62
80
51
163
94
135
10
16
78
165
160
16
182
16
128
153
53
165
199
180
13
12
14
139
128
58
21
39
189
159
45
187
55
81
151
147
108
51
65
115
169
38
49
197
107
140
166
69
18
122
147
15
86
191
99
118
113
131
150
88
126
197
191
31
140
195
96
113
4
37
83
134
97
102
96
79
94
194
181
141
85
130
